
Gurobi 6.5.2 (linux64) logging started Wed Sep 14 14:58:48 2016

Optimize a model with 21 rows, 33 columns and 73 nonzeros
Coefficient statistics:
  Matrix range    [1e+00, 2e+00]
  Objective range [2e+00, 1e+02]
  Bounds range    [1e+00, 1e+00]
  RHS range       [1e+00, 1e+00]
Presolve removed 9 rows and 5 columns
Presolve time: 0.00s
Presolved: 12 rows, 28 columns, 57 nonzeros
Variable types: 0 continuous, 28 integer (28 binary)
Found heuristic solution: objective 411.0000000

Root relaxation: objective 3.905000e+02, 14 iterations, 0.00 seconds

    Nodes    |    Current Node    |     Objective Bounds      |     Work
 Expl Unexpl |  Obj  Depth IntInf | Incumbent    BestBd   Gap | It/Node Time

     0     0  390.50000    0    2  411.00000  390.50000  4.99%     -    0s
H    0     0                     391.0000000  390.50000  0.13%     -    0s

Explored 0 nodes (14 simplex iterations) in 0.00 seconds
Thread count was 8 (of 8 available processors)

Optimal solution found (tolerance 1.00e-04)
Best objective 3.910000000000e+02, best bound 3.910000000000e+02, gap 0.0%
